p cnf 52 187
1 -2 -3 0
-1 2 -3 0
1 2 3 0
-1 -2 3 0
7 5 0
7 6 0
-5 -6 -7 0
-7 8 -9 0
7 -8 -9 0
-7 -8 9 0
7 8 9 0
-4 -9 -10 0
4 9 -10 0
-4 9 10 0
4 -9 10 0
3 10 -11 0
-3 -10 -11 0
3 -10 11 0
-3 10 11 0
12 -2 -13 0
-12 2 -13 0
12 2 13 0
-12 -2 13 0
-14 13 0
-14 -2 0
-13 2 14 0
16 5 0
16 15 0
-5 -15 -16 0
-18 6 0
-18 6 0
-6 18 0
19 -18 0
19 -6 0
18 6 -19 0
-20 -17 0
-20 -19 0
17 19 20 0
21 -16 0
21 -20 0
16 20 -21 0
-22 14 0
-22 21 0
-14 -21 22 0
-23 -7 0
-23 -15 0
7 15 23 0
1 17 -24 0
-1 -17 -24 0
1 -17 24 0
-1 17 24 0
-25 23 0
-25 24 0
-23 -24 25 0
22 25 -26 0
-22 -25 -26 0
22 -25 26 0
-22 25 26 0
-11 -26 -27 0
11 26 -27 0
-11 26 27 0
11 -26 27 0
28 -18 0
28 5 0
18 -5 -28 0
-1 -7 -29 0
1 7 -29 0
-1 7 29 0
1 -7 29 0
28 29 -30 0
-28 -29 -30 0
28 -29 30 0
-28 29 30 0
-29 2 -31 0
29 -2 -31 0
-29 -2 31 0
29 2 31 0
32 -7 0
32 15 0
7 -15 -32 0
33 -32 0
33 17 0
32 -17 -33 0
35 33 0
35 34 0
-33 -34 -35 0
-31 35 -36 0
31 -35 -36 0
-31 -35 36 0
31 35 36 0
-28 32 -37 0
28 -32 -37 0
-28 -32 37 0
28 32 37 0
36 37 -38 0
-36 -37 -38 0
36 -37 38 0
-36 37 38 0
-39 19 0
-39 9 0
-19 -9 39 0
-40 39 0
-40 39 0
-39 40 0
12 32 -41 0
-12 -32 -41 0
12 -32 41 0
-12 32 41 0
-42 5 0
-42 41 0
-5 -41 42 0
43 40 0
43 -42 0
-40 42 -43 0
44 -18 0
44 -32 0
18 32 -44 0
-45 44 0
-45 -18 0
-44 18 45 0
17 -45 -46 0
-17 45 -46 0
17 45 46 0
-17 -45 46 0
47 2 0
47 -8 0
-2 8 -47 0
-48 -46 0
-48 47 0
46 -47 48 0
49 43 0
49 48 0
-43 -48 -49 0
-50 38 0
-50 -49 0
-38 49 50 0
30 -50 -51 0
-30 50 -51 0
30 50 51 0
-30 -50 51 0
-52 -27 0
-52 -51 0
27 51 52 0
23 -6 -21 -34 -16 0
25 -15 -47 24 0
13 49 18 37 0
-11 32 0
-42 -24 37 -16 -45 0
36 -34 15 8 0
-46 9 30 50 14 0
-49 -40 -48 23 0
3 -31 -27 1 0
-17 46 4 7 0
19 -13 50 0
-27 10 -49 8 -24 0
46 -3 -24 13 -31 0
5 48 0
45 -47 0
33 0
-11 38 19 -25 48 0
-14 42 21 0
18 -1 -44 0
23 -7 0
21 -30 -7 15 0
7 50 -31 -47 -52 0
-21 -41 -10 -40 38 0
38 27 45 0
-15 -2 -50 6 -29 0
-33 -5 4 0
-44 -29 -16 0
-3 46 21 -49 41 0
-20 26 48 -32 -7 0
5 -32 0
26 25 0
-32 -1 12 10 37 0
42 10 -26 0
4 16 40 -10 -28 46 0
43 -36 30 -20 0
48 46 -35 0
-14 12 -13 0
49 23 7 -16 -30 14 0
3 28 0
-26 -50 35 -45 0
-49 -7 -27 0
-37 -51 -34 -46 -35 0
13 49 29 22 -35 0
52 0
